100
128
47
32
19
19
11
37
11
15
33
11
36
53
47
11
21
43
21
52
48
28
38
13
58
23
27
7
48
5
57
26
23
34
10
12
46
10
31
15
24
49
15
14
19
16
62
17
24
55
32
18
54
36
59
51
20
32
18
2
19
33
29
56
31
54
20
48
26
15
20
29
38
41
41
40
47
33
41
15
17
45
18
23
31
40
27
18
24
22
20
29
20
30
19
56
48
32
40
40
32
55